30
1 0 28
2 0 21
2 1 100
3 0 21
3 1 22
3 2 37
4 0 98
4 1 83
4 2 96
4 3 3
5 0 6
5 1 98
5 2 5
5 3 51
5 4 86
6 0 13
6 1 10
6 2 65
6 3 5
6 4 4
6 5 16
7 0 95
7 1 73
7 2 62
7 3 60
7 4 35
7 5 72
7 6 47
8 0 93
8 1 21
8 2 56
8 3 12
8 4 15
8 5 48
8 6 58
8 7 60
9 0 33
9 1 13
9 2 38
9 3 10
9 4 70
9 5 26
9 6 52
9 7 73
9 8 39
10 0 58
10 1 28
10 2 59
10 3 55
10 4 4
10 5 78
10 6 85
10 7 59
10 8 92
10 9 91
11 0 39
11 1 69
11 2 57
11 3 69
11 4 12
11 5 78
11 6 68
11 7 12
11 8 30
11 9 80
11 10 73
12 0 70
12 1 29
12 2 84
12 3 99
12 4 3
12 5 56
12 6 39
12 7 28
12 8 25
12 9 90
12 10 95
12 11 26
13 0 26
13 1 24
13 2 65
13 3 9
13 4 91
13 5 46
13 6 65
13 7 57
13 8 65
13 9 100
13 10 45
13 11 32
13 12 32
14 0 34
14 1 41
14 2 33
14 3 5
14 4 61
14 5 6
14 6 16
14 7 46
14 8 72
14 9 9
14 10 63
14 11 66
14 12 100
14 13 99
15 0 52
15 1 68
15 2 16
15 3 82
15 4 92
15 5 41
15 6 1
15 7 54
15 8 16
15 9 7
15 10 29
15 11 85
15 12 31
15 13 91
15 14 59
16 0 53
16 1 89
16 2 59
16 3 13
16 4 74
16 5 19
16 6 44
16 7 90
16 8 67
16 9 25
16 10 56
16 11 50
16 12 57
16 13 58
16 14 49
16 15 62
17 0 14
17 1 9
17 2 87
17 3 1
17 4 55
17 5 69
17 6 34
17 7 32
17 8 85
17 9 74
17 10 58
17 11 29
17 12 47
17 13 21
17 14 23
17 15 6
17 16 85
18 0 14
18 1 21
18 2 66
18 3 72
18 4 92
18 5 51
18 6 86
18 7 40
18 8 40
18 9 49
18 10 4
18 11 13
18 12 90
18 13 43
18 14 63
18 15 31
18 16 46
18 17 73
19 0 44
19 1 27
19 2 13
19 3 92
19 4 84
19 5 81
19 6 10
19 7 62
19 8 53
19 9 67
19 10 72
19 11 92
19 12 62
19 13 73
19 14 7
19 15 80
19 16 89
19 17 48
19 18 41
20 0 78
20 1 75
20 2 26
20 3 63
20 4 68
20 5 26
20 6 5
20 7 81
20 8 23
20 9 95
20 10 98
20 11 11
20 12 12
20 13 57
20 14 90
20 15 91
20 16 37
20 17 4
20 18 46
20 19 90
21 0 42
21 1 93
21 2 68
21 3 28
21 4 19
21 5 52
21 6 8
21 7 55
21 8 2
21 9 28
21 10 52
21 11 49
21 12 22
21 13 98
21 14 61
21 15 21
21 16 64
21 17 22
21 18 28
21 19 39
21 20 62
22 0 82
22 1 79
22 2 19
22 3 5
22 4 35
22 5 29
22 6 45
22 7 44
22 8 93
22 9 76
22 10 92
22 11 33
22 12 83
22 13 95
22 14 99
22 15 34
22 16 69
22 17 55
22 18 93
22 19 76
22 20 41
22 21 82
23 0 59
23 1 40
23 2 80
23 3 31
23 4 31
23 5 14
23 6 74
23 7 55
23 8 19
23 9 47
23 10 49
23 11 67
23 12 19
23 13 81
23 14 17
23 15 36
23 16 55
23 17 57
23 18 69
23 19 80
23 20 66
23 21 6
23 22 72
24 0 28
24 1 29
24 2 87
24 3 38
24 4 67
24 5 71
24 6 26
24 7 65
24 8 2
24 9 32
24 10 66
24 11 95
24 12 94
24 13 66
24 14 36
24 15 13
24 16 54
24 17 93
24 18 95
24 19 89
24 20 2
24 21 53
24 22 14
24 23 53
25 0 25
25 1 9
25 2 2
25 3 30
25 4 90
25 5 99
25 6 80
25 7 88
25 8 1
25 9 57
25 10 65
25 11 81
25 12 1
25 13 21
25 14 29
25 15 82
25 16 58
25 17 23
25 18 25
25 19 34
25 20 87
25 21 22
25 22 4
25 23 77
25 24 2
26 0 11
26 1 69
26 2 22
26 3 89
26 4 32
26 5 39
26 6 72
26 7 53
26 8 67
26 9 8
26 10 23
26 11 81
26 12 88
26 13 37
26 14 99
26 15 14
26 16 86
26 17 10
26 18 87
26 19 34
26 20 20
26 21 30
26 22 81
26 23 92
26 24 39
26 25 50
27 0 66
27 1 50
27 2 84
27 3 63
27 4 84
27 5 4
27 6 70
27 7 95
27 8 69
27 9 8
27 10 93
27 11 64
27 12 42
27 13 29
27 14 26
27 15 15
27 16 7
27 17 83
27 18 96
27 19 40
27 20 84
27 21 54
27 22 50
27 23 35
27 24 72
27 25 80
27 26 58
28 0 58
28 1 29
28 2 61
28 3 8
28 4 96
28 5 8
28 6 35
28 7 89
28 8 47
28 9 92
28 10 4
28 11 80
28 12 73
28 13 11
28 14 33
28 15 69
28 16 91
28 17 44
28 18 32
28 19 86
28 20 98
28 21 22
28 22 1
28 23 24
28 24 47
28 25 97
28 26 5
28 27 74
29 0 34
29 1 50
29 2 4
29 3 2
29 4 40
29 5 34
29 6 49
29 7 42
29 8 57
29 9 88
29 10 24
29 11 92
29 12 91
29 13 64
29 14 6
29 15 25
29 16 97
29 17 58
29 18 49
29 19 53
29 20 29
29 21 30
29 22 30
29 23 15
29 24 75
29 25 51
29 26 24
29 27 76
29 28 27
